linear programming/gurobi/sddp/iter2_sub_1^2.sol
# Objective value = -300
q_2^2 8.3333333333333339e+00
I_1^2 8.3333333333333321e+00
B_1^2 0
theta_3^2 -100
